data;

set A := 6167 777439 279194 440870 573998 434717 695703 823220 447628 510806 594963 707102 2057 381865 369982 875974 61309 908810 360809 114113 992898 590463 473863 772308 190646 807325 887471 696503 528502 350479 607575 230485 665316 420687 835034 180490 532130 681899 193779 395107 564436 926465 815551 765089 772258 39042 378111 228790 910642 900018 426707 661701;
param T := 13000000;

end;
